9 92 18 83 59 49 23 19 71 57 58 11 65 54 82 70 89 76 0 81 45 55 25 39 79 33 60 64 94 28 29 12 67 86 95 38 27 4 22 63 13 73 32 91 34 41 31 14 37 75 61 6 87 20 96 84 30 15 78 3 98 5 10 44 77 46 68 52 7 53 48 24 97 2 51 43 26 62 88 17 40 50 69 42 56 35 8 80 90 72 16 66 21 1 93 85 36 47 74 99 

